p td 140 67
1 68
2 13
3 41
3 115
6 26
6 121
9 24
10 45
10 101
11 45
13 15
16 119
20 62
21 65
21 92
21 97
22 26
22 60
22 64
22 103
23 57
23 76
25 47
25 57
27 126
28 79
30 66
30 76
31 138
32 101
35 131
36 44
36 61
37 41
37 51
39 43
39 136
40 118
42 44
43 64
43 79
44 127
44 135
51 127
53 66
53 88
54 129
56 115
56 139
59 106
64 104
65 81
71 97
71 110
74 81
74 100
78 139
80 130
83 100
91 107
92 129
94 104
96 133
103 137
104 108
117 138
123 135
